58

S         -0.78726        2.27249        0.00000
C         -2.01729        1.09940        0.00000
N          0.57027        1.57412        0.00000
C         -3.35731        1.52761        0.00000
C         -1.71067       -0.27144        0.00000
O         -1.17035        3.66192        0.00000
C          1.80495        2.19095        0.00000
C         -4.36546        0.60559        0.00000
H         -3.59311        2.58549        0.00000
C         -2.72092       -1.19632        0.00000
H         -0.67913       -0.59784        0.00000
C          2.93271        1.20352        0.00000
O          1.99645        3.39292        0.00000
C         -4.09316       -0.80359        0.00000
H         -5.39632        0.94068        0.00000
H         -2.46364       -2.25077        0.00000
C          2.70571       -0.17402        0.00000
C          4.24117        1.68721        0.00000
C         -5.25654       -1.81263        0.00000
C          3.77763       -1.05675        0.00000
H          1.69044       -0.55091        0.00000
C          5.31246        0.80300        0.00000
H          4.41108        2.75759        0.00000
H         -5.24562       -2.37534        0.92333
H         -5.24562       -2.37534       -0.92333
H         -6.21711       -1.32623        0.00000
C          5.08188       -0.56972        0.00000
H          3.59557       -2.12576        0.00000
H          6.32746        1.18479        0.00000
H          5.91799       -1.26083        0.00000
C         -0.56819        1.15350        2.84664
C         -1.50935        0.15500        3.22728
C          0.80668        0.87669        3.09083
O         -0.94440        2.24640        2.27719
C         -1.10613       -1.03974        3.77756
H         -2.56191        0.35093        3.05403
C          1.21429       -0.31849        3.63730
H          1.53864        1.63180        2.82779
C          0.25748       -1.28119        3.97430
H         -1.83118       -1.79582        4.05098
H          2.26502       -0.51959        3.80395
N          0.68122       -2.53715        4.53263
O          1.87993       -2.73350        4.70412
O         -0.16982       -3.37450        4.81543
C         -0.56819        1.15350       -2.84664
C         -1.50935        0.15500       -3.22728
C          0.80668        0.87669       -3.09083
O         -0.94440        2.24640       -2.27719
C         -1.10613       -1.03974       -3.77756
H         -2.56191        0.35093       -3.05403
C          1.21429       -0.31849       -3.63730
H          1.53864        1.63180       -2.82779
C          0.25748       -1.28119       -3.97430
H         -1.83118       -1.79582       -4.05098
H          2.26502       -0.51959       -3.80395
N          0.68122       -2.53715       -4.53263
O         -0.16982       -3.37450       -4.81543
O          1.87993       -2.73350       -4.70412
